%
% Problem instance for Monorail
% 
% From
% http://blog.aaroniba.net/2011/07/06/a-lesson-from-my-ios-users-they-dont-teach-at-mit
%
%
% Used by the MiniZinc model http://www.hakank.org/minizinc/monorail.mzn
%
rows = 4;
cols = 4;
num_given = 3;
given = array2d(1..num_given, 1..2,
   [
     6,7,
     6,10,
     14,15
    ]);
